p cnf 23 10
e 1 0
a 2 0
e 3 4 5 0
a 6 0
e 7 0
a 8 9 0
e 10 0
a 11 12 13 14 0
e 15 16 0
a 17 18 19 0
e 20 0
a 21 0
e 22 23 0
23 -20 6 -7 0
-21 12 17 -5 -22 0
-18 8 9 -7 0
-8 -16 -2 -5 18 0
-7 -13 -3 -9 0
10 3 -23 -8 -16 0
-12 -18 -5 -3 7 0
-13 9 -23 0
9 -22 4 0
-9 18 -22 -15 0
